# 21465
param k := 6;
param n := 60;
param s := 1;
set E :=  (0,33) (1,48) (2,13) (2,39) (3,36) (4,33) (5,11) (5,26) (5,29) (6,45) (7,22) (7,29) (8,35) (9,14) (9,48) (10,15) (11,23) (11,35) (11,51) (12,32) (13,16) (13,28) (13,30) (14,32) (15,38) (16,24) (16,59) (17,29) (18,54) (19,25) (20,36) (21,27) (21,30) (21,34) (22,56) (23,37) (24,45) (25,33) (26,27) (26,38) (26,50) (27,42) (28,44) (28,57) (30,35) (30,55) (31,42) (31,46) (33,36) (33,48) (34,52) (36,42) (38,47) (40,48) (40,49) (41,46) (41,52) (43,59) (47,54) (52,59) (53,57) (55,58);